JulietBench/Juliet_Based_Patch_Bench/linux/CWE-189-Numeric-Errors/CVE_2011_1745_194b3da873fd334ef183806db751473512af29ce/solveragp_generic_insert_memory_Snippet_patch2.smt2
; benchmark generated from python API
(set-info :status unknown)
(declare-fun R () (_ BitVec 32))
(declare-fun rdx () (_ BitVec 64))
(declare-fun rsi () (_ BitVec 64))
(declare-fun rdi () (_ BitVec 64))
(assert
 (let (($x854 (= (_ bv0 32) R)))
 (let ((?x6 ((_ extract 31 0) rdx)))
 (let ((?x7 ((_ zero_extend 32) ?x6)))
 (let ((?x11 (bvlshr ?x7 (_ bv31 64))))
 (let ((?x20 ((_ extract 0 0) ?x11)))
 (let ((?x27 (bvand ?x20 (_ bv1 1))))
 (let (($x53 (= (_ bv0 1) ?x27)))
 (let ((?x68 ((_ sign_extend 32) ?x6)))
 (let (($x840 (bvule (_ bv10 64) ?x68)))
 (let (($x851 (and $x840 $x53 $x854)))
 (let (($x835 (= (_ bv4294967274 32) R)))
 (let (($x847 (bvugt (_ bv10 64) ?x68)))
 (let (($x850 (and $x847 $x53 $x835)))
 (let (($x26 (and (distinct (_ bv0 1) ?x27) true)))
 (let (($x856 (and $x26 $x835)))
 (let (($x858 (or $x856 $x850 $x851)))
 (let (($x861 (not $x858)))
 (let ((?x67 (bvadd rdi rsi)))
 (let (($x69 (bvule ?x67 ?x68)))
 (let (($x842 (and $x69 $x53 $x854)))
 (let (($x810 (bvugt ?x67 ?x68)))
 (let (($x852 (and $x810 $x53 $x835)))
 (let (($x63 (bvule ?x67 (_ bv0 64))))
 (let (($x855 (and $x63 $x26 $x854)))
 (let (($x819 (bvugt ?x67 (_ bv0 64))))
 (let (($x831 (and $x819 $x26 $x835)))
 (let (($x853 (or $x831 $x855 $x852 $x842)))
 (let (($x860 (not $x853)))
 (let (($x862 (and $x860 $x861)))
 (let (($x859 (and $x853 $x858)))
 (let (($x863 (or $x859 $x862)))
 (not $x863)))))))))))))))))))))))))))))))))
(check-sat)
